coords = array2d(1..64, 1..2, [819, 61, 861, 477, 933, 184, 768, 665, 425, 675,
    767, 67, 322, 330, 64, 317, 818, 898, 915, 419, 893, 51, 334, 620,
    297, 997, 880, 362, 22, 573, 479, 62, 683, 333, 599, 936, 138,
    937, 599, 189, 391, 503, 562, 861, 809, 476, 420, 870, 398, 9,
    584, 933, 297, 842, 811, 638, 802, 410, 759, 114, 876, 164, 290,
    337, 390, 592, 860, 8, 460, 724, 977, 383, 647, 715, 769, 48, 667,
    925, 419, 544, 627, 845, 995, 461, 578, 917, 588, 654, 738, 520,
    960, 617, 894, 46, 234, 186, 895, 818, 185, 931, 932, 821, 921,
    433, 506, 568, 560, 128, 288, 106, 618, 932, 483, 664, 153, 413,
    360, 778, 673, 532, 177, 368, 505, 551, 423, 417, 516, 660]);

n = 64;

